p tw 544 2752
1 33
2 34
3 35
4 36
5 37
6 38
7 39
8 40
9 41
10 42
11 43
12 44
13 45
14 46
15 47
16 48
17 49
18 50
19 51
20 52
21 53
22 54
23 55
24 56
25 57
26 58
27 59
28 60
29 61
30 62
31 63
32 64
33 65
33 66
33 67
33 68
33 69
33 70
34 126
34 135
34 142
34 149
34 155
34 158
35 71
35 105
35 113
35 114
35 115
35 116
36 95
36 96
36 97
36 98
36 99
36 100
37 96
37 113
37 117
37 118
37 119
37 120
38 72
38 90
38 118
38 129
38 132
38 133
39 68
39 119
39 145
39 152
39 153
39 154
40 74
40 115
40 153
40 169
40 170
40 171
41 73
41 127
41 143
41 163
41 165
41 168
42 111
42 114
42 146
42 165
42 166
42 167
43 77
43 78
43 79
43 80
43 81
43 82
44 92
44 102
44 139
44 152
44 159
44 160
45 98
45 106
45 134
45 135
45 136
45 137
46 77
46 101
46 105
46 106
46 107
46 108
47 110
47 123
47 159
47 161
47 163
47 164
48 86
48 107
48 132
48 155
48 156
48 157
49 79
49 130
49 138
49 142
49 143
49 144
50 66
50 121
50 125
50 126
50 127
50 128
51 93
51 136
51 140
51 156
51 172
51 173
52 65
52 95
52 101
52 102
52 103
52 104
53 67
53 134
53 145
53 146
53 147
53 148
54 78
54 84
54 109
54 129
54 130
54 131
55 69
55 87
55 103
55 150
55 161
55 162
56 97
56 117
56 121
56 122
56 123
56 124
57 80
57 122
57 125
57 149
57 150
57 151
58 89
58 90
58 91
58 92
58 93
58 94
59 75
59 147
59 170
59 172
59 174
59 176
60 83
60 84
60 85
60 86
60 87
60 88
61 83
61 89
61 109
61 110
61 111
61 112
62 71
62 72
62 73
62 74
62 75
62 76
63 81
63 99
63 166
63 169
63 174
63 175
64 85
64 91
64 138
64 139
64 140
64 141
65 66
65 67
65 68
65 69
65 70
65 95
65 101
65 102
65 103
65 104
66 67
66 68
66 69
66 70
66 121
66 125
66 126
66 127
66 128
67 68
67 69
67 70
67 134
67 145
67 146
67 147
67 148
68 69
68 70
68 119
68 145
68 152
68 153
68 154
69 70
69 87
69 103
69 150
69 161
69 162
70 177
70 178
70 179
70 180
70 181
70 182
71 72
71 73
71 74
71 75
71 76
71 105
71 113
71 114
71 115
71 116
72 73
72 74
72 75
72 76
72 90
72 118
72 129
72 132
72 133
73 74
73 75
73 76
73 127
73 143
73 163
73 165
73 168
74 75
74 76
74 115
74 153
74 169
74 170
74 171
75 76
75 147
75 170
75 172
75 174
75 176
76 183
76 184
76 185
76 186
76 187
76 188
77 78
77 79
77 80
77 81
77 82
77 101
77 105
77 106
77 107
77 108
78 79
78 80
78 81
78 82
78 84
78 109
78 129
78 130
78 131
79 80
79 81
79 82
79 130
79 138
79 142
79 143
79 144
80 81
80 82
80 122
80 125
80 149
80 150
80 151
81 82
81 99
81 166
81 169
81 174
81 175
82 189
82 190
82 191
82 192
82 193
82 194
83 84
83 85
83 86
83 87
83 88
83 89
83 109
83 110
83 111
83 112
84 85
84 86
84 87
84 88
84 109
84 129
84 130
84 131
85 86
85 87
85 88
85 91
85 138
85 139
85 140
85 141
86 87
86 88
86 107
86 132
86 155
86 156
86 157
87 88
87 103
87 150
87 161
87 162
88 195
88 196
88 197
88 198
88 199
88 200
89 90
89 91
89 92
89 93
89 94
89 109
89 110
89 111
89 112
90 91
90 92
90 93
90 94
90 118
90 129
90 132
90 133
91 92
91 93
91 94
91 138
91 139
91 140
91 141
92 93
92 94
92 102
92 139
92 152
92 159
92 160
93 94
93 136
93 140
93 156
93 172
93 173
94 201
94 202
94 203
94 204
94 205
94 206
95 96
95 97
95 98
95 99
95 100
95 101
95 102
95 103
95 104
96 97
96 98
96 99
96 100
96 113
96 117
96 118
96 119
96 120
97 98
97 99
97 100
97 117
97 121
97 122
97 123
97 124
98 99
98 100
98 106
98 134
98 135
98 136
98 137
99 100
99 166
99 169
99 174
99 175
100 207
100 208
100 209
100 210
100 211
100 212
101 102
101 103
101 104
101 105
101 106
101 107
101 108
102 103
102 104
102 139
102 152
102 159
102 160
103 104
103 150
103 161
103 162
104 177
104 207
104 213
104 214
104 215
104 216
105 106
105 107
105 108
105 113
105 114
105 115
105 116
106 107
106 108
106 134
106 135
106 136
106 137
107 108
107 132
107 155
107 156
107 157
108 189
108 213
108 217
108 218
108 219
108 220
109 110
109 111
109 112
109 129
109 130
109 131
110 111
110 112
110 123
110 159
110 161
110 163
110 164
111 112
111 114
111 146
111 165
111 166
111 167
112 195
112 201
112 221
112 222
112 223
112 224
113 114
113 115
113 116
113 117
113 118
113 119
113 120
114 115
114 116
114 146
114 165
114 166
114 167
115 116
115 153
115 169
115 170
115 171
116 183
116 217
116 225
116 226
116 227
116 228
117 118
117 119
117 120
117 121
117 122
117 123
117 124
118 119
118 120
118 129
118 132
118 133
119 120
119 145
119 152
119 153
119 154
120 208
120 225
120 229
120 230
120 231
120 232
121 122
121 123
121 124
121 125
121 126
121 127
121 128
122 123
122 124
122 125
122 149
122 150
122 151
123 124
123 159
123 161
123 163
123 164
124 209
124 229
124 233
124 234
124 235
124 236
125 126
125 127
125 128
125 149
125 150
125 151
126 127
126 128
126 135
126 142
126 149
126 155
126 158
127 128
127 143
127 163
127 165
127 168
128 178
128 233
128 237
128 238
128 239
128 240
129 130
129 131
129 132
129 133
130 131
130 138
130 142
130 143
130 144
131 190
131 196
131 221
131 241
131 242
131 243
132 133
132 155
132 156
132 157
133 184
133 202
133 230
133 241
133 244
133 245
134 135
134 136
134 137
134 145
134 146
134 147
134 148
135 136
135 137
135 142
135 149
135 155
135 158
136 137
136 140
136 156
136 172
136 173
137 210
137 218
137 246
137 247
137 248
137 249
138 139
138 140
138 141
138 142
138 143
138 144
139 140
139 141
139 152
139 159
139 160
140 141
140 156
140 172
140 173
141 197
141 203
141 250
141 251
141 252
141 253
142 143
142 144
142 149
142 155
142 158
143 144
143 163
143 165
143 168
144 191
144 242
144 250
144 254
144 255
144 256
145 146
145 147
145 148
145 152
145 153
145 154
146 147
146 148
146 165
146 166
146 167
147 148
147 170
147 172
147 174
147 176
148 179
148 246
148 257
148 258
148 259
148 260
149 150
149 151
149 155
149 158
150 151
150 161
150 162
151 192
151 234
151 237
151 261
151 262
151 263
152 153
152 154
152 159
152 160
153 154
153 169
153 170
153 171
154 180
154 231
154 257
154 264
154 265
154 266
155 156
155 157
155 158
156 157
156 172
156 173
157 198
157 219
157 244
157 267
157 268
157 269
158 238
158 247
158 254
158 261
158 267
158 270
159 160
159 161
159 163
159 164
160 204
160 214
160 251
160 264
160 271
160 272
161 162
161 163
161 164
162 181
162 199
162 215
162 262
162 273
162 274
163 164
163 165
163 168
164 222
164 235
164 271
164 273
164 275
164 276
165 166
165 167
165 168
166 167
166 169
166 174
166 175
167 223
167 226
167 258
167 277
167 278
167 279
168 185
168 239
168 255
168 275
168 277
168 280
169 170
169 171
169 174
169 175
170 171
170 172
170 174
170 176
171 186
171 227
171 265
171 281
171 282
171 283
172 173
172 174
172 176
173 205
173 248
173 252
173 268
173 284
173 285
174 175
174 176
175 193
175 211
175 278
175 281
175 286
175 287
176 187
176 259
176 282
176 284
176 286
176 288
177 178
177 179
177 180
177 181
177 182
177 207
177 213
177 214
177 215
177 216
178 179
178 180
178 181
178 182
178 233
178 237
178 238
178 239
178 240
179 180
179 181
179 182
179 246
179 257
179 258
179 259
179 260
180 181
180 182
180 231
180 257
180 264
180 265
180 266
181 182
181 199
181 215
181 262
181 273
181 274
182 289
182 290
182 291
182 292
182 293
182 294
183 184
183 185
183 186
183 187
183 188
183 217
183 225
183 226
183 227
183 228
184 185
184 186
184 187
184 188
184 202
184 230
184 241
184 244
184 245
185 186
185 187
185 188
185 239
185 255
185 275
185 277
185 280
186 187
186 188
186 227
186 265
186 281
186 282
186 283
187 188
187 259
187 282
187 284
187 286
187 288
188 295
188 296
188 297
188 298
188 299
188 300
189 190
189 191
189 192
189 193
189 194
189 213
189 217
189 218
189 219
189 220
190 191
190 192
190 193
190 194
190 196
190 221
190 241
190 242
190 243
191 192
191 193
191 194
191 242
191 250
191 254
191 255
191 256
192 193
192 194
192 234
192 237
192 261
192 262
192 263
193 194
193 211
193 278
193 281
193 286
193 287
194 301
194 302
194 303
194 304
194 305
194 306
195 196
195 197
195 198
195 199
195 200
195 201
195 221
195 222
195 223
195 224
196 197
196 198
196 199
196 200
196 221
196 241
196 242
196 243
197 198
197 199
197 200
197 203
197 250
197 251
197 252
197 253
198 199
198 200
198 219
198 244
198 267
198 268
198 269
199 200
199 215
199 262
199 273
199 274
200 307
200 308
200 309
200 310
200 311
200 312
201 202
201 203
201 204
201 205
201 206
201 221
201 222
201 223
201 224
202 203
202 204
202 205
202 206
202 230
202 241
202 244
202 245
203 204
203 205
203 206
203 250
203 251
203 252
203 253
204 205
204 206
204 214
204 251
204 264
204 271
204 272
205 206
205 248
205 252
205 268
205 284
205 285
206 313
206 314
206 315
206 316
206 317
206 318
207 208
207 209
207 210
207 211
207 212
207 213
207 214
207 215
207 216
208 209
208 210
208 211
208 212
208 225
208 229
208 230
208 231
208 232
209 210
209 211
209 212
209 229
209 233
209 234
209 235
209 236
210 211
210 212
210 218
210 246
210 247
210 248
210 249
211 212
211 278
211 281
211 286
211 287
212 319
212 320
212 321
212 322
212 323
212 324
213 214
213 215
213 216
213 217
213 218
213 219
213 220
214 215
214 216
214 251
214 264
214 271
214 272
215 216
215 262
215 273
215 274
216 289
216 319
216 325
216 326
216 327
216 328
217 218
217 219
217 220
217 225
217 226
217 227
217 228
218 219
218 220
218 246
218 247
218 248
218 249
219 220
219 244
219 267
219 268
219 269
220 301
220 325
220 329
220 330
220 331
220 332
221 222
221 223
221 224
221 241
221 242
221 243
222 223
222 224
222 235
222 271
222 273
222 275
222 276
223 224
223 226
223 258
223 277
223 278
223 279
224 307
224 313
224 333
224 334
224 335
224 336
225 226
225 227
225 228
225 229
225 230
225 231
225 232
226 227
226 228
226 258
226 277
226 278
226 279
227 228
227 265
227 281
227 282
227 283
228 295
228 329
228 337
228 338
228 339
228 340
229 230
229 231
229 232
229 233
229 234
229 235
229 236
230 231
230 232
230 241
230 244
230 245
231 232
231 257
231 264
231 265
231 266
232 320
232 337
232 341
232 342
232 343
232 344
233 234
233 235
233 236
233 237
233 238
233 239
233 240
234 235
234 236
234 237
234 261
234 262
234 263
235 236
235 271
235 273
235 275
235 276
236 321
236 341
236 345
236 346
236 347
236 348
237 238
237 239
237 240
237 261
237 262
237 263
238 239
238 240
238 247
238 254
238 261
238 267
238 270
239 240
239 255
239 275
239 277
239 280
240 290
240 345
240 349
240 350
240 351
240 352
241 242
241 243
241 244
241 245
242 243
242 250
242 254
242 255
242 256
243 302
243 308
243 333
243 353
243 354
243 355
244 245
244 267
244 268
244 269
245 296
245 314
245 342
245 353
245 356
245 357
246 247
246 248
246 249
246 257
246 258
246 259
246 260
247 248
247 249
247 254
247 261
247 267
247 270
248 249
248 252
248 268
248 284
248 285
249 322
249 330
249 358
249 359
249 360
249 361
250 251
250 252
250 253
250 254
250 255
250 256
251 252
251 253
251 264
251 271
251 272
252 253
252 268
252 284
252 285
253 309
253 315
253 362
253 363
253 364
253 365
254 255
254 256
254 261
254 267
254 270
255 256
255 275
255 277
255 280
256 303
256 354
256 362
256 366
256 367
256 368
257 258
257 259
257 260
257 264
257 265
257 266
258 259
258 260
258 277
258 278
258 279
259 260
259 282
259 284
259 286
259 288
260 291
260 358
260 369
260 370
260 371
260 372
261 262
261 263
261 267
261 270
262 263
262 273
262 274
263 304
263 346
263 349
263 373
263 374
263 375
264 265
264 266
264 271
264 272
265 266
265 281
265 282
265 283
266 292
266 343
266 369
266 376
266 377
266 378
267 268
267 269
267 270
268 269
268 284
268 285
269 310
269 331
269 356
269 379
269 380
269 381
270 350
270 359
270 366
270 373
270 379
270 382
271 272
271 273
271 275
271 276
272 316
272 326
272 363
272 376
272 383
272 384
273 274
273 275
273 276
274 293
274 311
274 327
274 374
274 385
274 386
275 276
275 277
275 280
276 334
276 347
276 383
276 385
276 387
276 388
277 278
277 279
277 280
278 279
278 281
278 286
278 287
279 335
279 338
279 370
279 389
279 390
279 391
280 297
280 351
280 367
280 387
280 389
280 392
281 282
281 283
281 286
281 287
282 283
282 284
282 286
282 288
283 298
283 339
283 377
283 393
283 394
283 395
284 285
284 286
284 288
285 317
285 360
285 364
285 380
285 396
285 397
286 287
286 288
287 305
287 323
287 390
287 393
287 398
287 399
288 299
288 371
288 394
288 396
288 398
288 400
289 290
289 291
289 292
289 293
289 294
289 319
289 325
289 326
289 327
289 328
290 291
290 292
290 293
290 294
290 345
290 349
290 350
290 351
290 352
291 292
291 293
291 294
291 358
291 369
291 370
291 371
291 372
292 293
292 294
292 343
292 369
292 376
292 377
292 378
293 294
293 311
293 327
293 374
293 385
293 386
294 401
294 402
294 403
294 404
294 405
294 406
295 296
295 297
295 298
295 299
295 300
295 329
295 337
295 338
295 339
295 340
296 297
296 298
296 299
296 300
296 314
296 342
296 353
296 356
296 357
297 298
297 299
297 300
297 351
297 367
297 387
297 389
297 392
298 299
298 300
298 339
298 377
298 393
298 394
298 395
299 300
299 371
299 394
299 396
299 398
299 400
300 407
300 408
300 409
300 410
300 411
300 412
301 302
301 303
301 304
301 305
301 306
301 325
301 329
301 330
301 331
301 332
302 303
302 304
302 305
302 306
302 308
302 333
302 353
302 354
302 355
303 304
303 305
303 306
303 354
303 362
303 366
303 367
303 368
304 305
304 306
304 346
304 349
304 373
304 374
304 375
305 306
305 323
305 390
305 393
305 398
305 399
306 413
306 414
306 415
306 416
306 417
306 418
307 308
307 309
307 310
307 311
307 312
307 313
307 333
307 334
307 335
307 336
308 309
308 310
308 311
308 312
308 333
308 353
308 354
308 355
309 310
309 311
309 312
309 315
309 362
309 363
309 364
309 365
310 311
310 312
310 331
310 356
310 379
310 380
310 381
311 312
311 327
311 374
311 385
311 386
312 419
312 420
312 421
312 422
312 423
312 424
313 314
313 315
313 316
313 317
313 318
313 333
313 334
313 335
313 336
314 315
314 316
314 317
314 318
314 342
314 353
314 356
314 357
315 316
315 317
315 318
315 362
315 363
315 364
315 365
316 317
316 318
316 326
316 363
316 376
316 383
316 384
317 318
317 360
317 364
317 380
317 396
317 397
318 425
318 426
318 427
318 428
318 429
318 430
319 320
319 321
319 322
319 323
319 324
319 325
319 326
319 327
319 328
320 321
320 322
320 323
320 324
320 337
320 341
320 342
320 343
320 344
321 322
321 323
321 324
321 341
321 345
321 346
321 347
321 348
322 323
322 324
322 330
322 358
322 359
322 360
322 361
323 324
323 390
323 393
323 398
323 399
324 431
324 432
324 433
324 434
324 435
324 436
325 326
325 327
325 328
325 329
325 330
325 331
325 332
326 327
326 328
326 363
326 376
326 383
326 384
327 328
327 374
327 385
327 386
328 401
328 431
328 437
328 438
328 439
328 440
329 330
329 331
329 332
329 337
329 338
329 339
329 340
330 331
330 332
330 358
330 359
330 360
330 361
331 332
331 356
331 379
331 380
331 381
332 413
332 437
332 441
332 442
332 443
332 444
333 334
333 335
333 336
333 353
333 354
333 355
334 335
334 336
334 347
334 383
334 385
334 387
334 388
335 336
335 338
335 370
335 389
335 390
335 391
336 419
336 425
336 445
336 446
336 447
336 448
337 338
337 339
337 340
337 341
337 342
337 343
337 344
338 339
338 340
338 370
338 389
338 390
338 391
339 340
339 377
339 393
339 394
339 395
340 407
340 441
340 449
340 450
340 451
340 452
341 342
341 343
341 344
341 345
341 346
341 347
341 348
342 343
342 344
342 353
342 356
342 357
343 344
343 369
343 376
343 377
343 378
344 432
344 449
344 453
344 454
344 455
344 456
345 346
345 347
345 348
345 349
345 350
345 351
345 352
346 347
346 348
346 349
346 373
346 374
346 375
347 348
347 383
347 385
347 387
347 388
348 433
348 453
348 457
348 458
348 459
348 460
349 350
349 351
349 352
349 373
349 374
349 375
350 351
350 352
350 359
350 366
350 373
350 379
350 382
351 352
351 367
351 387
351 389
351 392
352 402
352 457
352 461
352 462
352 463
352 464
353 354
353 355
353 356
353 357
354 355
354 362
354 366
354 367
354 368
355 414
355 420
355 445
355 465
355 466
355 467
356 357
356 379
356 380
356 381
357 408
357 426
357 454
357 465
357 468
357 469
358 359
358 360
358 361
358 369
358 370
358 371
358 372
359 360
359 361
359 366
359 373
359 379
359 382
360 361
360 364
360 380
360 396
360 397
361 434
361 442
361 470
361 471
361 472
361 473
362 363
362 364
362 365
362 366
362 367
362 368
363 364
363 365
363 376
363 383
363 384
364 365
364 380
364 396
364 397
365 421
365 427
365 474
365 475
365 476
365 477
366 367
366 368
366 373
366 379
366 382
367 368
367 387
367 389
367 392
368 415
368 466
368 474
368 478
368 479
368 480
369 370
369 371
369 372
369 376
369 377
369 378
370 371
370 372
370 389
370 390
370 391
371 372
371 394
371 396
371 398
371 400
372 403
372 470
372 481
372 482
372 483
372 484
373 374
373 375
373 379
373 382
374 375
374 385
374 386
375 416
375 458
375 461
375 485
375 486
375 487
376 377
376 378
376 383
376 384
377 378
377 393
377 394
377 395
378 404
378 455
378 481
378 488
378 489
378 490
379 380
379 381
379 382
380 381
380 396
380 397
381 422
381 443
381 468
381 491
381 492
381 493
382 462
382 471
382 478
382 485
382 491
382 494
383 384
383 385
383 387
383 388
384 428
384 438
384 475
384 488
384 495
384 496
385 386
385 387
385 388
386 405
386 423
386 439
386 486
386 497
386 498
387 388
387 389
387 392
388 446
388 459
388 495
388 497
388 499
388 500
389 390
389 391
389 392
390 391
390 393
390 398
390 399
391 447
391 450
391 482
391 501
391 502
391 503
392 409
392 463
392 479
392 499
392 501
392 504
393 394
393 395
393 398
393 399
394 395
394 396
394 398
394 400
395 410
395 451
395 489
395 505
395 506
395 507
396 397
396 398
396 400
397 429
397 472
397 476
397 492
397 508
397 509
398 399
398 400
399 417
399 435
399 502
399 505
399 510
399 511
400 411
400 483
400 506
400 508
400 510
400 512
401 402
401 403
401 404
401 405
401 406
401 431
401 437
401 438
401 439
401 440
402 403
402 404
402 405
402 406
402 457
402 461
402 462
402 463
402 464
403 404
403 405
403 406
403 470
403 481
403 482
403 483
403 484
404 405
404 406
404 455
404 481
404 488
404 489
404 490
405 406
405 423
405 439
405 486
405 497
405 498
406 544
407 408
407 409
407 410
407 411
407 412
407 441
407 449
407 450
407 451
407 452
408 409
408 410
408 411
408 412
408 426
408 454
408 465
408 468
408 469
409 410
409 411
409 412
409 463
409 479
409 499
409 501
409 504
410 411
410 412
410 451
410 489
410 505
410 506
410 507
411 412
411 483
411 506
411 508
411 510
411 512
412 515
413 414
413 415
413 416
413 417
413 418
413 437
413 441
413 442
413 443
413 444
414 415
414 416
414 417
414 418
414 420
414 445
414 465
414 466
414 467
415 416
415 417
415 418
415 466
415 474
415 478
415 479
415 480
416 417
416 418
416 458
416 461
416 485
416 486
416 487
417 418
417 435
417 502
417 505
417 510
417 511
418 534
419 420
419 421
419 422
419 423
419 424
419 425
419 445
419 446
419 447
419 448
420 421
420 422
420 423
420 424
420 445
420 465
420 466
420 467
421 422
421 423
421 424
421 427
421 474
421 475
421 476
421 477
422 423
422 424
422 443
422 468
422 491
422 492
422 493
423 424
423 439
423 486
423 497
423 498
424 517
425 426
425 427
425 428
425 429
425 430
425 445
425 446
425 447
425 448
426 427
426 428
426 429
426 430
426 454
426 465
426 468
426 469
427 428
427 429
427 430
427 474
427 475
427 476
427 477
428 429
428 430
428 438
428 475
428 488
428 495
428 496
429 430
429 472
429 476
429 492
429 508
429 509
430 519
431 432
431 433
431 434
431 435
431 436
431 437
431 438
431 439
431 440
432 433
432 434
432 435
432 436
432 449
432 453
432 454
432 455
432 456
433 434
433 435
433 436
433 453
433 457
433 458
433 459
433 460
434 435
434 436
434 442
434 470
434 471
434 472
434 473
435 436
435 502
435 505
435 510
435 511
436 541
437 438
437 439
437 440
437 441
437 442
437 443
437 444
438 439
438 440
438 475
438 488
438 495
438 496
439 440
439 486
439 497
439 498
440 525
441 442
441 443
441 444
441 449
441 450
441 451
441 452
442 443
442 444
442 470
442 471
442 472
442 473
443 444
443 468
443 491
443 492
443 493
444 531
445 446
445 447
445 448
445 465
445 466
445 467
446 447
446 448
446 459
446 495
446 497
446 499
446 500
447 448
447 450
447 482
447 501
447 502
447 503
448 516
449 450
449 451
449 452
449 453
449 454
449 455
449 456
450 451
450 452
450 482
450 501
450 502
450 503
451 452
451 489
451 505
451 506
451 507
452 542
453 454
453 455
453 456
453 457
453 458
453 459
453 460
454 455
454 456
454 465
454 468
454 469
455 456
455 481
455 488
455 489
455 490
456 540
457 458
457 459
457 460
457 461
457 462
457 463
457 464
458 459
458 460
458 461
458 485
458 486
458 487
459 460
459 495
459 497
459 499
459 500
460 521
461 462
461 463
461 464
461 485
461 486
461 487
462 463
462 464
462 471
462 478
462 485
462 491
462 494
463 464
463 479
463 499
463 501
463 504
464 527
465 466
465 467
465 468
465 469
466 467
466 474
466 478
466 479
466 480
467 523
468 469
468 491
468 492
468 493
469 539
470 471
470 472
470 473
470 481
470 482
470 483
470 484
471 472
471 473
471 478
471 485
471 491
471 494
472 473
472 476
472 492
472 508
472 509
473 532
474 475
474 476
474 477
474 478
474 479
474 480
475 476
475 477
475 488
475 495
475 496
476 477
476 492
476 508
476 509
477 513
478 479
478 480
478 485
478 491
478 494
479 480
479 499
479 501
479 504
480 528
481 482
481 483
481 484
481 488
481 489
481 490
482 483
482 484
482 501
482 502
482 503
483 484
483 506
483 508
483 510
483 512
484 524
485 486
485 487
485 491
485 494
486 487
486 497
486 498
487 520
488 489
488 490
488 495
488 496
489 490
489 505
489 506
489 507
490 538
491 492
491 493
491 494
492 493
492 508
492 509
493 529
494 543
495 496
495 497
495 499
495 500
496 533
497 498
497 499
497 500
498 522
499 500
499 501
499 504
500 530
501 502
501 503
501 504
502 503
502 505
502 510
502 511
503 535
504 536
505 506
505 507
505 510
505 511
506 507
506 508
506 510
506 512
507 537
508 509
508 510
508 512
509 526
510 511
510 512
511 514
512 518
